<?xml version = "1.0" standalone="yes"?>
<!-- This file has been generated by DOcplex version 2.23.222  -->
<CPLEXSolution version="1.0">
 <header
   problemName="CVRP"
   objectiveValue="17817.4"
  />
 <variables>
  <variable name="x_0_1" index="0" value="1.00000"/>
  <variable name="x_0_3" index="2" value="1.00000"/>
  <variable name="x_0_4" index="3" value="1.00000"/>
  <variable name="x_0_6" index="5" value="1.00000"/>
  <variable name="x_0_7" index="6" value="1.00000"/>
  <variable name="x_0_8" index="7" value="1.00000"/>
  <variable name="x_0_9" index="8" value="1.00000"/>
  <variable name="x_0_10" index="9" value="1.00000"/>
  <variable name="x_0_11" index="10" value="1.00000"/>
  <variable name="x_0_15" index="14" value="1.00000"/>
  <variable name="x_0_16" index="15" value="1.00000"/>
  <variable name="x_0_19" index="18" value="1.00000"/>
  <variable name="x_0_20" index="19" value="1.00000"/>
  <variable name="x_0_23" index="22" value="1.00000"/>
  <variable name="x_1_0" index="23" value="1.00000"/>
  <variable name="x_2_0" index="46" value="1.00000"/>
  <variable name="x_3_17" index="85" value="1.00000"/>
  <variable name="x_4_0" index="92" value="1.00000"/>
  <variable name="x_5_0" index="115" value="1.00000"/>
  <variable name="x_6_18" index="155" value="1.00000"/>
  <variable name="x_7_0" index="161" value="1.00000"/>
  <variable name="x_8_22" index="205" value="1.00000"/>
  <variable name="x_9_12" index="218" value="1.00000"/>
  <variable name="x_10_0" index="230" value="1.00000"/>
  <variable name="x_11_0" index="253" value="1.00000"/>
  <variable name="x_12_13" index="288" value="1.00000"/>
  <variable name="x_13_0" index="299" value="1.00000"/>
  <variable name="x_14_5" index="327" value="1.00000"/>
  <variable name="x_15_0" index="345" value="1.00000"/>
  <variable name="x_16_0" index="368" value="1.00000"/>
  <variable name="x_17_2" index="393" value="1.00000"/>
  <variable name="x_18_0" index="414" value="1.00000"/>
  <variable name="x_19_21" index="457" value="1.00000"/>
  <variable name="x_20_0" index="460" value="1.00000"/>
  <variable name="x_21_0" index="483" value="1.00000"/>
  <variable name="x_22_0" index="506" value="1.00000"/>
  <variable name="x_23_14" index="543" value="1.00000"/>
  <variable name="u_1" index="552" value="22.00000"/>
  <variable name="u_2" index="553" value="27.00000"/>
  <variable name="u_3" index="554" value="4.00000"/>
  <variable name="u_4" index="555" value="27.00000"/>
  <variable name="u_5" index="556" value="23.00000"/>
  <variable name="u_6" index="557" value="2.00000"/>
  <variable name="u_7" index="558" value="26.00000"/>
  <variable name="u_8" index="559" value="21.00000"/>
  <variable name="u_9" index="560" value="19.00000"/>
  <variable name="u_10" index="561" value="18.00000"/>
  <variable name="u_11" index="562" value="16.00000"/>
  <variable name="u_12" index="563" value="21.00000"/>
  <variable name="u_13" index="564" value="26.00000"/>
  <variable name="u_14" index="565" value="16.00000"/>
  <variable name="u_15" index="566" value="22.00000"/>
  <variable name="u_16" index="567" value="26.00000"/>
  <variable name="u_17" index="568" value="25.00000"/>
  <variable name="u_18" index="569" value="26.00000"/>
  <variable name="u_19" index="570" value="22.00000"/>
  <variable name="u_20" index="571" value="25.00000"/>
  <variable name="u_21" index="572" value="27.00000"/>
  <variable name="u_22" index="573" value="26.00000"/>
  <variable name="u_23" index="574" value="12.00000"/>
 </variables>
</CPLEXSolution>
